p edge 30 144 19
e 1 2
e 1 3
e 1 4
e 1 5
e 1 6
e 1 7
e 1 8
e 1 9
e 1 10
e 1 12
e 1 13
e 1 14
e 1 15
e 1 21
e 1 22
e 1 24
e 1 25
e 1 26
e 1 30
e 2 8
e 2 9
e 2 10
e 2 21
e 2 28
e 3 8
e 3 9
e 3 10
e 3 11
e 3 13
e 3 14
e 3 16
e 3 17
e 3 19
e 3 21
e 3 22
e 4 8
e 4 9
e 4 10
e 4 11
e 4 12
e 4 13
e 4 14
e 4 15
e 4 16
e 4 17
e 4 19
e 4 21
e 4 25
e 4 27
e 4 28
e 5 10
e 5 12
e 5 17
e 5 20
e 6 8
e 6 9
e 6 11
e 6 12
e 6 15
e 6 18
e 7 8
e 7 11
e 7 16
e 7 24
e 7 26
e 7 29
e 7 30
e 8 9
e 8 10
e 8 11
e 8 12
e 8 13
e 8 17
e 8 18
e 8 19
e 8 21
e 8 27
e 8 30
e 9 11
e 9 13
e 9 14
e 9 18
e 9 19
e 9 23
e 9 25
e 9 26
e 9 27
e 9 28
e 9 30
e 10 15
e 10 20
e 10 23
e 10 25
e 10 29
e 11 12
e 11 13
e 11 14
e 11 16
e 11 17
e 11 18
e 11 19
e 11 22
e 11 23
e 11 27
e 11 28
e 11 29
e 12 14
e 12 24
e 12 26
e 12 29
e 12 30
e 13 15
e 13 28
e 14 15
e 14 16
e 14 18
e 14 20
e 14 24
e 15 16
e 15 17
e 15 19
e 15 20
e 15 22
e 15 28
e 16 22
e 16 23
e 16 24
e 16 25
e 17 18
e 18 20
e 18 23
e 18 29
e 19 20
e 19 21
e 19 23
e 19 27
e 19 29
e 20 22
e 20 27
e 21 24
e 21 26
e 24 25
e 25 26
e 26 30
